c Sudoku solution
p cnf 729 0
214 0
245 0
261 0
299 0
319 0
328 0
347 0
366 0
381 0
529 0
534 0
568 0
633 0
671 0
688 0
695 0
763 0
849 0
872 0
913 0
938 0
739 0
418 0
941 0
955 0
465 0
515 0
551 0
964 0
867 0
922 0
979 0
489 0
986 0
997 0
162 0
159 0
612 0
669 0
727 0
824 0
835 0
883 0
117 0
125 0
131 0
223 0
332 0
236 0
375 0
282 0
277 0
258 0
421 0
626 0
437 0
657 0
644 0
143 0
354 0
184 0
393 0
453 0
748 0
752 0
856 0
716 0
811 0
791 0
898 0
573 0
587 0
774 0
785 0
476 0
494 0
592 0
442 0
546 0
178 0
196 0
